14382.90 0
0 104 98 95 93 94 89 88 78 77 70 69 68 79 76 71 64 72 75 80 85 84 83 82 81 74 73 50 67 63 62 59 58 54 53 55 60 61 57 56 65 66 86 87 90 91 7 8 12 13 34 35 41 42 47 46 45 37 36 40 49 48 44 43 39 38 32 31 30 29 25 18 15 14 11 19 24 26 33 27 23 20 28 22 21 16 17 10 9 52 6 3 2 102 100 97 101 92 51 96 99 103 1 4 5